n = 6;
rank =    [8,5,5,4,2,2];
ability = [0,1,0,1,0,1];
m = 4; 
beauty =  [4,5,3,8];
speed =   [6,4,5,4];

enjoy = [| 3,4,5,7
         | 1,6,3,4
         | 2,3,4,3
         | 9,6,2,3
         | 4,-1,3,3
         | 4,4,4,4 |];
